NAME          
ROWS
 N  OBJ
 L  c1
 L  c2
COLUMNS
    MARKER    'MARKER'                 'INTORG'
    x[1]      c1        758
    x[1]      c2        872
    x[1]      OBJ       -358
    x[2]      c1        472
    x[2]      c2        678
    x[2]      OBJ       -196
    x[3]      c1        613
    x[3]      c2        45
    x[3]      OBJ       -519
    x[4]      c1        329
    x[4]      c2        269
    x[4]      OBJ       -185
    x[5]      c1        592
    x[5]      c2        623
    x[5]      OBJ       -762
    x[6]      c1        26
    x[6]      c2        211
    x[6]      OBJ       -423
    x[7]      c1        201
    x[7]      c2        909
    x[7]      OBJ       -422
    x[8]      c1        963
    x[8]      c2        33
    x[8]      OBJ       -686
    x[9]      c1        604
    x[9]      c2        222
    x[9]      OBJ       -503
    x[10]     c1        799
    x[10]     c2        776
    x[10]     OBJ       -842
    x[11]     c1        997
    x[11]     c2        483
    x[11]     OBJ       -530
    x[12]     c1        327
    x[12]     c2        615
    x[12]     OBJ       -692
    x[13]     c1        680
    x[13]     c2        373
    x[13]     OBJ       -364
    x[14]     c1        193
    x[14]     c2        164
    x[14]     OBJ       -961
    x[15]     c1        256
    x[15]     c2        865
    x[15]     OBJ       -681
    x[16]     c1        356
    x[16]     c2        795
    x[16]     OBJ       -229
    x[17]     c1        737
    x[17]     c2        606
    x[17]     OBJ       -12
    x[18]     c1        612
    x[18]     c2        612
    x[18]     OBJ       -570
    x[19]     c1        17
    x[19]     c2        206
    x[19]     OBJ       -792
    x[20]     c1        301
    x[20]     c2        15
    x[20]     OBJ       -288
    x[21]     c1        29
    x[21]     c2        390
    x[21]     OBJ       -683
    x[22]     c1        41
    x[22]     c2        910
    x[22]     OBJ       -515
    x[23]     c1        581
    x[23]     c2        206
    x[23]     OBJ       -492
    x[24]     c1        716
    x[24]     c2        741
    x[24]     OBJ       -977
    x[25]     c1        65
    x[25]     c2        620
    x[25]     OBJ       -991
    x[26]     c1        408
    x[26]     c2        133
    x[26]     OBJ       -894
    x[27]     c1        436
    x[27]     c2        780
    x[27]     OBJ       -306
    x[28]     c1        502
    x[28]     c2        59
    x[28]     OBJ       -192
    x[29]     c1        471
    x[29]     c2        463
    x[29]     OBJ       -993
    x[30]     c1        465
    x[30]     c2        829
    x[30]     OBJ       -33
    x[31]     c1        539
    x[31]     c2        49
    x[31]     OBJ       -682
    x[32]     c1        56
    x[32]     c2        514
    x[32]     OBJ       -711
    x[33]     c1        391
    x[33]     c2        832
    x[33]     OBJ       -518
    x[34]     c1        716
    x[34]     c2        706
    x[34]     OBJ       -275
    x[35]     c1        769
    x[35]     c2        631
    x[35]     OBJ       -367
    x[36]     c1        795
    x[36]     c2        46
    x[36]     OBJ       -483
    x[37]     c1        244
    x[37]     c2        436
    x[37]     OBJ       -769
    x[38]     c1        542
    x[38]     c2        99
    x[38]     OBJ       -404
    x[39]     c1        621
    x[39]     c2        278
    x[39]     OBJ       -43
    x[40]     c1        15
    x[40]     c2        792
    x[40]     OBJ       -933
    x[41]     c1        636
    x[41]     c2        145
    x[41]     OBJ       -846
    x[42]     c1        510
    x[42]     c2        999
    x[42]     OBJ       -906
    x[43]     c1        234
    x[43]     c2        103
    x[43]     OBJ       -995
    x[44]     c1        640
    x[44]     c2        28
    x[44]     OBJ       -955
    x[45]     c1        171
    x[45]     c2        114
    x[45]     OBJ       -198
    x[46]     c1        676
    x[46]     c2        254
    x[46]     OBJ       -896
    x[47]     c1        331
    x[47]     c2        510
    x[47]     OBJ       -843
    x[48]     c1        931
    x[48]     c2        494
    x[48]     OBJ       -34
    x[49]     c1        979
    x[49]     c2        62
    x[49]     OBJ       -989
    x[50]     c1        926
    x[50]     c2        604
    x[50]     OBJ       -467
RHS
    rhs       c1        12134
    rhs       c2        11100
RANGES
BOUNDS
 BV bounds    x[1]
 BV bounds    x[2]
 BV bounds    x[3]
 BV bounds    x[4]
 BV bounds    x[5]
 BV bounds    x[6]
 BV bounds    x[7]
 BV bounds    x[8]
 BV bounds    x[9]
 BV bounds    x[10]
 BV bounds    x[11]
 BV bounds    x[12]
 BV bounds    x[13]
 BV bounds    x[14]
 BV bounds    x[15]
 BV bounds    x[16]
 BV bounds    x[17]
 BV bounds    x[18]
 BV bounds    x[19]
 BV bounds    x[20]
 BV bounds    x[21]
 BV bounds    x[22]
 BV bounds    x[23]
 BV bounds    x[24]
 BV bounds    x[25]
 BV bounds    x[26]
 BV bounds    x[27]
 BV bounds    x[28]
 BV bounds    x[29]
 BV bounds    x[30]
 BV bounds    x[31]
 BV bounds    x[32]
 BV bounds    x[33]
 BV bounds    x[34]
 BV bounds    x[35]
 BV bounds    x[36]
 BV bounds    x[37]
 BV bounds    x[38]
 BV bounds    x[39]
 BV bounds    x[40]
 BV bounds    x[41]
 BV bounds    x[42]
 BV bounds    x[43]
 BV bounds    x[44]
 BV bounds    x[45]
 BV bounds    x[46]
 BV bounds    x[47]
 BV bounds    x[48]
 BV bounds    x[49]
 BV bounds    x[50]
ENDATA
